\Generated by Cardinal Operations

Maximize
   1475.07 x_('A','B')17:05_f + 461.18 x_('A','B')17:05_l 
   + 1653.2 x_('A','C')0:00_f + 473.63 x_('A','C')0:00_l 
   + 1489.26 x_('B','C')9:05_f + 443.62 x_('B','C')9:05_l 
   + 1665.21 x_('C','A')18:30_f + 463.64 x_('C','A')18:30_l 
   + 1455.47 x_('A','B')22:45_f + 436.14 x_('A','B')22:45_l 
Subject To
 capacity_constraint_('A','B')17:05: 1.2 x_('A','B')17:05_f 
   + x_('A','B')17:05_l <= 187
 balance_constraint_('A','B')17:05: 4.92 x_('A','B')17:05_0 
   + 0.72 x_('A','B')17:05_f + 0.72 x_('A','B')17:05_l <= 179.5
 scale_constraint_('A','B')17:05_f: 2.803 x_('A','B')17:05_0 
   - 0.9 x_('A','B')17:05_f >= 0
 scale_constraint_('A','B')17:05_l: 1.367 x_('A','B')17:05_0 
   - 0.9 x_('A','B')17:05_l >= 0
 capacity_constraint_('A','C')0:00: 1.2 x_('A','C')0:00_f 
   + x_('A','C')0:00_l <= 187
 balance_constraint_('A','C')0:00: 4.92 x_('A','C')0:00_0 
   + 0.72 x_('A','C')0:00_f + 0.72 x_('A','C')0:00_l <= 156.57
 scale_constraint_('A','C')0:00_f: 2.671 x_('A','C')0:00_0 
   - 0.9 x_('A','C')0:00_f >= 0
 scale_constraint_('A','C')0:00_l: 1.303 x_('A','C')0:00_0 
   - 0.9 x_('A','C')0:00_l >= 0
 capacity_constraint_('B','C')9:05: 1.2 x_('B','C')9:05_f 
   + x_('B','C')9:05_l <= 187
 balance_constraint_('B','C')9:05: 3.7 x_('B','C')9:05_0 
   + 0.9 x_('B','C')9:05_f + 0.9 x_('B','C')9:05_l <= 20.73
 scale_constraint_('B','C')9:05_f: 1.864 x_('B','C')9:05_0 
   - 2 x_('B','C')9:05_f >= 0
 scale_constraint_('B','C')9:05_l: x_('B','C')9:05_0 - 2 x_('B','C')9:05_l 
   >= 0
 capacity_constraint_('C','A')18:30: 1.2 x_('C','A')18:30_f 
   + x_('C','A')18:30_l <= 187
 balance_constraint_('C','A')18:30: 1.72 x_('C','A')18:30_0 
   + 0.97 x_('C','A')18:30_f + 0.97 x_('C','A')18:30_l <= 166.5
 scale_constraint_('C','A')18:30_f: 3.126 x_('C','A')18:30_0 
   - 1.2 x_('C','A')18:30_f >= 0
 scale_constraint_('C','A')18:30_l: 1.631 x_('C','A')18:30_0 
   - 1.2 x_('C','A')18:30_l >= 0
 capacity_constraint_('A','B')22:45: 1.2 x_('A','B')22:45_f 
   + x_('A','B')22:45_l <= 187
 balance_constraint_('A','B')22:45: 4.92 x_('A','B')22:45_0 
   + 0.72 x_('A','B')22:45_f + 0.72 x_('A','B')22:45_l <= 159.14
 scale_constraint_('A','B')22:45_f: 2.671 x_('A','B')22:45_0 
   - 0.9 x_('A','B')22:45_f >= 0
 scale_constraint_('A','B')22:45_l: 1.303 x_('A','B')22:45_0 
   - 0.9 x_('A','B')22:45_l >= 0
END

